words_hard_train/3849.qaiger
aag 90 24 0 1 66
2
4
12
14
22
24
38
50
52
64
66
78
80
92
94
108
118
122
130
140
150
158
160
176
181
6 3 5
8 2 4
10 7 9
16 12 14
18 10 16
20 19 9
26 23 25
28 22 24
30 27 29
32 20 31
34 21 30
36 33 35
40 37 39
42 13 15
44 43 17
46 41 45
48 35 29
54 51 53
56 50 52
58 55 57
60 49 58
62 61 57
68 65 67
70 64 66
72 69 71
74 63 72
76 75 71
82 79 81
84 78 80
86 83 85
88 77 86
90 89 85
96 93 95
98 92 94
100 97 99
102 90 101
104 91 100
106 103 105
110 107 109
112 46 111
114 11 17
116 115 19
120 117 119
124 121 123
126 48 59
128 127 61
132 129 131
134 124 133
136 62 73
138 137 75
142 139 141
144 134 143
146 76 87
148 147 89
152 149 151
154 144 153
156 112 154
162 159 160
164 158 161
166 163 165
168 105 99
170 166 168
172 167 169
174 171 173
178 175 177
180 156 179
i0 1 x1[1]
i1 1 x2[1]
i2 1 x1[0]
i3 1 x2[0]
i4 1 x1[2]
i5 1 x2[2]
i6 2 y2[2]
i7 1 x1[3]
i8 1 x2[3]
i9 1 x1[4]
i10 1 x2[4]
i11 1 x1[5]
i12 1 x2[5]
i13 1 x1[6]
i14 1 x2[6]
i15 2 y2[6]
i16 2 y2[1]
i17 2 y2[0]
i18 2 y2[3]
i19 2 y2[4]
i20 2 y2[5]
i21 1 x1[7]
i22 1 x2[7]
i23 2 y2[7]
o0 bool[0]
c
simplified
  !=
    or
      2 y2
      add
        1 x1
        1 x2
    invert
      1
