words_hard_train/3849.qaiger.qdimacs
p cnf 90 199
a 32 1 2 33 6 7 39 40 11 12 46 47 79 80 25 26 0
e 3 4 5 8 9 10 13 14 15 16 17 18 19 20 21 22 23 24 27 28 29 30 31 34 35 36 37 38 41 42 43 44 45 48 49 50 51 52 53 54 55 56 57 58 59 60 61 62 63 64 65 66 67 68 69 70 71 72 73 74 75 76 77 78 81 82 83 84 85 86 87 88 89 90 0
1 2 3 0
-1 -3 0
-2 -3 0
-1 -2 4 0
1 -4 0
2 -4 0
3 4 5 0
-3 -5 0
-4 -5 0
-6 -7 8 0
6 -8 0
7 -8 0
-5 -8 9 0
5 -9 0
8 -9 0
9 4 10 0
-9 -10 0
-4 -10 0
11 12 13 0
-11 -13 0
-12 -13 0
-11 -12 14 0
11 -14 0
12 -14 0
13 14 15 0
-13 -15 0
-14 -15 0
-10 15 16 0
10 -16 0
-15 -16 0
10 -15 17 0
-10 -17 0
15 -17 0
16 17 18 0
-16 -18 0
-17 -18 0
18 19 20 0
-18 -20 0
-19 -20 0
6 7 21 0
-6 -21 0
-7 -21 0
21 8 22 0
-21 -22 0
-8 -22 0
20 22 23 0
-20 -23 0
-22 -23 0
17 14 24 0
-17 -24 0
-14 -24 0
25 26 27 0
-25 -27 0
-26 -27 0
-25 -26 28 0
25 -28 0
26 -28 0
27 28 29 0
-27 -29 0
-28 -29 0
24 -29 30 0
-24 -30 0
29 -30 0
30 28 31 0
-30 -31 0
-28 -31 0
32 33 34 0
-32 -34 0
-33 -34 0
-32 -33 35 0
32 -35 0
33 -35 0
34 35 36 0
-34 -36 0
-35 -36 0
31 -36 37 0
-31 -37 0
36 -37 0
37 35 38 0
-37 -38 0
-35 -38 0
39 40 41 0
-39 -41 0
-40 -41 0
-39 -40 42 0
39 -42 0
40 -42 0
41 42 43 0
-41 -43 0
-42 -43 0
38 -43 44 0
-38 -44 0
43 -44 0
44 42 45 0
-44 -45 0
-42 -45 0
46 47 48 0
-46 -48 0
-47 -48 0
-46 -47 49 0
46 -49 0
47 -49 0
48 49 50 0
-48 -50 0
-49 -50 0
-45 50 51 0
45 -51 0
-50 -51 0
45 -50 52 0
-45 -52 0
50 -52 0
51 52 53 0
-51 -53 0
-52 -53 0
53 54 55 0
-53 -55 0
-54 -55 0
-23 55 56 0
23 -56 0
-55 -56 0
5 8 57 0
-5 -57 0
-8 -57 0
57 9 58 0
-57 -58 0
-9 -58 0
58 59 60 0
-58 -60 0
-59 -60 0
60 61 62 0
-60 -62 0
-61 -62 0
-24 29 63 0
24 -63 0
-29 -63 0
63 30 64 0
-63 -64 0
-30 -64 0
64 65 66 0
-64 -66 0
-65 -66 0
-62 66 67 0
62 -67 0
-66 -67 0
-31 36 68 0
31 -68 0
-36 -68 0
68 37 69 0
-68 -69 0
-37 -69 0
69 70 71 0
-69 -71 0
-70 -71 0
-67 71 72 0
67 -72 0
-71 -72 0
-38 43 73 0
38 -73 0
-43 -73 0
73 44 74 0
-73 -74 0
-44 -74 0
74 75 76 0
-74 -76 0
-75 -76 0
-72 76 77 0
72 -77 0
-76 -77 0
-56 -77 78 0
56 -78 0
77 -78 0
79 -80 81 0
-79 -81 0
80 -81 0
-79 80 82 0
79 -82 0
-80 -82 0
81 82 83 0
-81 -83 0
-82 -83 0
52 49 84 0
-52 -84 0
-49 -84 0
-83 -84 85 0
83 -85 0
84 -85 0
83 84 86 0
-83 -86 0
-84 -86 0
85 86 87 0
-85 -87 0
-86 -87 0
87 88 89 0
-87 -89 0
-88 -89 0
-78 89 90 0
78 -90 0
-89 -90 0
-90 0
